% ----DATA VARIABLES----

t=8;%number of attributes
k=3;%max length of the support set
n=10;%number of positive instances
m=10;%number of negative instances
c=2;%number of atMostOne Constraints

% ----OMEGAS----

omegap= [| 0, 1, 0, 1, 0, 0, 1, 1|
 0, 1, 1, 1, 0, 0, 0, 0|
 0, 1, 1, 0, 0, 0, 1, 0|
 0, 1, 0, 1, 1, 0, 0, 1|
 0, 0, 0, 0, 0, 0, 1, 0|
 0, 0, 0, 1, 0, 1, 1, 0|
 1, 0, 1, 0, 1, 1, 1, 0|
 1, 0, 1, 1, 0, 1, 1, 0|
 1, 0, 1, 1, 1, 0, 1, 1|
 0, 1, 1, 1, 1, 1, 0, 1|];

omegan= [| 1, 1, 0, 0, 1, 0, 0, 1|
 0, 0, 1, 1, 0, 1, 0, 0|
 0, 0, 1, 1, 1, 1, 0, 1|
 0, 0, 1, 0, 1, 1, 0, 1|
 0, 0, 0, 1, 1, 1, 1, 0|
 0, 1, 1, 1, 0, 1, 0, 0|
 1, 1, 1, 0, 1, 0, 0, 0|
 0, 0, 0, 0, 1, 1, 0, 0|
 1, 1, 0, 0, 1, 1, 0, 1|
 1, 0, 1, 1, 1, 1, 0, 1|];

% ----CONSTRAINS----

atMostOne=[{3, 5, 4}, {2}];